43 42 44 45 46 47 
41 40 59 57 68 69 
77 79 80 63 
13 17 18 19 15 16 14 12 
90 87 84 85 88 89 91 
32 33 31 35 37 38 39 36 34 
98 96 95 94 92 93 97 100 99 
8 7 3 5 
67 65 62 74 72 61 64 66 
55 54 53 56 58 60 48 51 50 52 49 
10 11 9 6 4 2 1 75 
81 78 76 73 70 71 82 83 86 
20 24 25 27 29 30 28 26 23 22 21 
